5026
5098
5088
5044
5024
5069
5095
5114
5073
5007
5075
5021
5053
5053
5098
5061
5082
5105
5060
5050
5100
5009
5043
5097
5041
5039
5032
5112
5084
5044
5120
5038
5066
5040
5000
5075
5092
5049
5049
5050
5032
5076
5105
5001
5116
5140
5088
5048
5090
5026
5085
5077
5060
5086
5045
5007
5115
5121
5085
5047
5128
5033
5135
5164
5064
5061
5036
5094
5066
5047
5118
5161
5105
5112
5118
5117
5048
5124
5073
5086
5082
5069
5120
5038
5077
5069
5119
5104
5117
5088
5111
5068
5007
5106
5110
5037
5105
5121
5078
5108
